instances/knapsack/discrete_knapsack_uncertainty/knapsack_110_10.lp
\ Model knapsack_110_10
\ LP format - for model browsing. Use MPS format to capture full model detail.
\ Signature: 0x1c7a262dccd0e095
Minimize
  - 24 x[0] - 4 x[1] - 82 x[2] - 98 x[3] - 75 x[4] - 59 x[5] - 23 x[6]
   - 25 x[7] - 8 x[8] - 12 x[9] - 89 x[10] - 57 x[11] - 37 x[12] - 12 x[13]
   - 17 x[14] - 34 x[15] - 72 x[16] - 76 x[17] - 88 x[18] - 15 x[19]
   - 67 x[20] - 89 x[21] - 54 x[22] - 98 x[23] - 83 x[24] - 60 x[25]
   - 86 x[26] - 77 x[27] - 56 x[28] - 62 x[29] - 63 x[30] - 46 x[31]
   - 38 x[32] - 69 x[33] - 69 x[34] - 19 x[35] - 31 x[36] - 33 x[37]
   - 44 x[38] - 5 x[39] - 10 x[40] - 63 x[41] - 63 x[42] - 61 x[43]
   - 72 x[44] - 93 x[45] - 98 x[46] - 14 x[47] - 34 x[48] - 19 x[49]
   - 77 x[50] - 56 x[51] - 37 x[52] - 55 x[53] - 54 x[54] - 8 x[55]
   - 52 x[56] - 82 x[57] - 38 x[58] - 21 x[59] - 18 x[60] - 72 x[61]
   - 99 x[62] - 23 x[63] - 84 x[64] - 31 x[65] - 55 x[66] - 79 x[67]
   - 26 x[68] - 43 x[69] - 43 x[70] - x[71] - 91 x[72] - 83 x[73]
   - 32 x[74] - 20 x[75] - 48 x[76] - 51 x[77] - 82 x[78] - 93 x[79]
   - 93 x[80] - 52 x[81] - 3 x[82] - 60 x[83] - 59 x[84] - 30 x[85]
   - 100 x[86] - 57 x[87] - 94 x[88] - 52 x[89] - 20 x[90] - 11 x[91]
   - 87 x[92] - 90 x[93] - 58 x[94] - 60 x[95] - 75 x[96] - 18 x[97]
   - 26 x[98] - 70 x[99] - 54 x[100] - 11 x[101] - 8 x[102] - 3 x[103]
   - 57 x[104] - 81 x[105] - 72 x[106] - 42 x[107] - 76 x[108] - 86 x[109]
Subject To
 primal_upper: 3 x[0] + 72 x[1] + 10 x[2] + 47 x[3] + 16 x[4] + 85 x[5]
   + 13 x[6] + 39 x[7] + 17 x[8] + 46 x[9] + 83 x[10] + 27 x[11] + 52 x[12]
   + 16 x[13] + 88 x[14] + 60 x[15] + 41 x[16] + 72 x[17] + 45 x[18]
   + 86 x[19] + 17 x[20] + 7 x[21] + 4 x[22] + 50 x[23] + 68 x[24]
   + 56 x[25] + 90 x[26] + 95 x[27] + 65 x[28] + 55 x[29] + x[30] + 7 x[31]
   + 63 x[32] + 21 x[33] + 84 x[34] + 81 x[35] + 80 x[36] + 4 x[37]
   + 24 x[38] + 30 x[39] + 3 x[40] + x[41] + 42 x[42] + 69 x[43] + 71 x[44]
   + 94 x[45] + 13 x[46] + 53 x[47] + 67 x[48] + 80 x[49] + 18 x[50]
   + 12 x[51] + 77 x[52] + 64 x[53] + 36 x[54] + 79 x[55] + 17 x[56]
   + 22 x[57] + 28 x[58] + 90 x[59] + 24 x[60] + 10 x[61] + 7 x[62]
   + 26 x[63] + 99 x[64] + 80 x[65] + 8 x[66] + 54 x[67] + 8 x[68]
   + 37 x[69] + 77 x[70] + 89 x[71] + 38 x[72] + 43 x[73] + 51 x[74]
   + 36 x[75] + 42 x[76] + 71 x[77] + 56 x[78] + 26 x[79] + x[80]
   + 77 x[81] + 34 x[82] + 49 x[83] + 21 x[84] + 85 x[85] + 3 x[86]
   + 12 x[87] + 70 x[88] + 47 x[89] + 84 x[90] + 4 x[91] + 88 x[92]
   + 79 x[93] + 36 x[94] + 9 x[95] + 25 x[96] + 36 x[97] + 84 x[98]
   + 20 x[99] + 5 x[100] + 36 x[101] + 26 x[102] + 72 x[103] + 77 x[104]
   + 94 x[105] + 15 x[106] + 46 x[107] + 82 x[108] + 81 x[109] + 0.3 r[0]
   + 7.2 r[1] + r[2] + 4.7 r[3] + 1.6 r[4] + 8.5 r[5] + 1.3 r[6] + 3.9 r[7]
   + 1.7 r[8] + 4.6 r[9] + 8.3 r[10] + 2.7 r[11] + 5.2 r[12] + 1.6 r[13]
   + 8.8 r[14] + 6 r[15] + 4.1 r[16] + 7.2 r[17] + 4.5 r[18] + 8.6 r[19]
   + 1.7 r[20] + 0.7 r[21] + 0.4 r[22] + 5 r[23] + 6.8 r[24] + 5.6 r[25]
   + 9 r[26] + 9.5 r[27] + 6.5 r[28] + 5.5 r[29] + 0.1 r[30] + 0.7 r[31]
   + 6.3 r[32] + 2.1 r[33] + 8.4 r[34] + 8.1 r[35] + 8 r[36] + 0.4 r[37]
   + 2.4 r[38] + 3 r[39] + 0.3 r[40] + 0.1 r[41] + 4.2 r[42] + 6.9 r[43]
   + 7.1 r[44] + 9.4 r[45] + 1.3 r[46] + 5.3 r[47] + 6.7 r[48] + 8 r[49]
   + 1.8 r[50] + 1.2 r[51] + 7.7 r[52] + 6.4 r[53] + 3.6 r[54] + 7.9 r[55]
   + 1.7 r[56] + 2.2 r[57] + 2.8 r[58] + 9 r[59] + 2.4 r[60] + r[61]
   + 0.7 r[62] + 2.6 r[63] + 9.9 r[64] + 8 r[65] + 0.8 r[66] + 5.4 r[67]
   + 0.8 r[68] + 3.7 r[69] + 7.7 r[70] + 8.9 r[71] + 3.8 r[72] + 4.3 r[73]
   + 5.1 r[74] + 3.6 r[75] + 4.2 r[76] + 7.1 r[77] + 5.6 r[78] + 2.6 r[79]
   + 0.1 r[80] + 7.7 r[81] + 3.4 r[82] + 4.9 r[83] + 2.1 r[84] + 8.5 r[85]
   + 0.3 r[86] + 1.2 r[87] + 7 r[88] + 4.7 r[89] + 8.4 r[90] + 0.4 r[91]
   + 8.8 r[92] + 7.9 r[93] + 3.6 r[94] + 0.9 r[95] + 2.5 r[96] + 3.6 r[97]
   + 8.4 r[98] + 2 r[99] + 0.5 r[100] + 3.6 r[101] + 2.6 r[102]
   + 7.2 r[103] + 7.7 r[104] + 9.4 r[105] + 1.5 r[106] + 4.6 r[107]
   + 8.2 r[108] + 8.1 r[109] <= 479
 primal_lower: 2.662283556668945 x[0] + 2.336179083187369 x[1]
   + 1.564927099552886 x[2] + 1.302892805280127 x[3]
   + 0.2919073742638583 x[4] + 3.283290725292933 x[5]
   + 3.584495486407963 x[6] + 1.797183577244164 x[7]
   + 4.978422934064448 x[8] + 4.852721635554939 x[9]
   + 4.671912598454381 x[10] + 4.408927848452948 x[11]
   + 4.149731697706271 x[12] + 0.2741572246293751 x[13]
   + 0.8299510306089622 x[14] + 1.141360879832092 x[15]
   + 0.041328848892439 x[16] + 0.8732118993556106 x[17]
   + 2.487139685161104 x[18] + 2.414118532850944 x[19]
   + 2.614333881260414 x[20] + 4.336593140789945 x[21]
   + 0.1670969110884576 x[22] + 1.074555656582857 x[23]
   + 3.691097915525587 x[24] + 3.956270116553692 x[25]
   + 4.742566451854835 x[26] + 4.826394536752269 x[27]
   + 3.930758111661458 x[28] + 4.797192029616665 x[29]
   + 3.169149981369888 x[30] + 3.357006213580829 x[31]
   + 3.008703842395073 x[32] + 0.0470822685425945 x[33]
   + 4.92292862570478 x[34] + 3.264443598435742 x[35]
   + 1.959674532587437 x[36] + 2.270265719074888 x[37]
   + 2.179833260395597 x[38] + 2.16931915755241 x[39]
   + 4.378053300942698 x[40] + 4.716157234881607 x[41]
   + 4.729683284730773 x[42] + 4.964452158943546 x[43]
   + 2.661910720056991 x[44] + 2.470494795071506 x[45]
   + 1.907822552174937 x[46] + 1.980991702744716 x[47]
   + 4.939818003459874 x[48] + 0.0523142225931475 x[49]
   + 1.460948963045057 x[50] + 2.959132727141329 x[51]
   + 2.367969840615009 x[52] + 1.480692025452979 x[53]
   + 2.775294177341659 x[54] + 4.627933672666463 x[55]
   + 0.8062325889997264 x[56] + 1.852640935406713 x[57]
   + 0.2622281604632876 x[58] + 0.7782301287661382 x[59]
   + 4.45791706315396 x[60] + 3.03222788056499 x[61]
   + 4.146503932384721 x[62] + 1.066391848973259 x[63]
   + 3.578801501514987 x[64] + 3.516875016499109 x[65]
   + 4.854363523000247 x[66] + 0.1626729345979269 x[67]
   + 4.160204768861743 x[68] + 1.223463521492572 x[69]
   + 3.981639857032471 x[70] + 2.715382965107457 x[71]
   + 2.855707454575172 x[72] + 1.314622877830673 x[73]
   + 1.390597110716544 x[74] + 2.595802692252498 x[75]
   + 2.057110721079173 x[76] + 2.490029255779235 x[77]
   + 1.864911912432221 x[78] + 0.4327058567153111 x[79]
   + 4.826536545846396 x[80] + 0.2527413565792005 x[81]
   + 1.709380271030479 x[82] + 4.786019164534275 x[83]
   + 0.507721428631343 x[84] + 3.174600578256418 x[85]
   + 5.029137172353508 x[86] + 0.3253018605303781 x[87]
   + 4.155723561155908 x[88] + 4.442564046802981 x[89]
   + 2.189595101906791 x[90] + 3.837430177195959 x[91]
   + 0.1860207278606753 x[92] + 3.422994064901896 x[93]
   + 1.116919625254608 x[94] + 3.393164335055423 x[95]
   + 2.093627474538329 x[96] + 0.8066179486694639 x[97]
   + 4.808505907930709 x[98] + 0.0866082360850825 x[99]
   + 0.8580190285160783 x[100] + 1.52626413945014 x[101]
   + 2.320583583127267 x[102] + 3.357511293376213 x[103]
   + 0.7384544139373205 x[104] + 1.638741830710023 x[105]
   + 3.218873373978491 x[106] + 4.204426883915871 x[107]
   + 4.194951730026291 x[108] + 3.017904063947266 x[109] + 28 u[0]
   + 33 u[1] + 35 u[2] + 68 u[3] + 13 u[4] + 54 u[5] + 50 u[6] + 24 u[7]
   + 66 u[8] + 7 u[9] + 96 u[10] + 88 u[11] + 97 u[12] + 85 u[13]
   + 85 u[14] + 21 u[15] + 90 u[16] + 89 u[17] + 58 u[18] + 83 u[19]
   + 34 u[20] + 24 u[21] + 29 u[22] + 87 u[23] + u[24] + 61 u[25]
   + 91 u[26] + 92 u[27] + 62 u[28] + 96 u[29] + 86 u[30] + 24 u[31]
   + 20 u[32] + 98 u[33] + 77 u[34] + 62 u[35] + 97 u[36] + 97 u[37]
   + 53 u[38] + 23 u[39] + 72 u[40] + 30 u[41] + 75 u[42] + 86 u[43]
   + 40 u[44] + 39 u[45] + 34 u[46] + 98 u[47] + 32 u[48] + 29 u[49]
   + 75 u[50] + 25 u[51] + 22 u[52] + 81 u[53] + 97 u[54] + 96 u[55]
   + 54 u[56] + 79 u[57] + 53 u[58] + 23 u[59] + 85 u[60] + 35 u[61]
   + 64 u[62] + 43 u[63] + 88 u[64] + 45 u[65] + 29 u[66] + 91 u[67]
   + 93 u[68] + 38 u[69] + 6 u[70] + 10 u[71] + 43 u[72] + 68 u[73]
   + 68 u[74] + 17 u[75] + 67 u[76] + 36 u[77] + 21 u[78] + 11 u[79]
   + 54 u[80] + 46 u[81] + 31 u[82] + 66 u[83] + 54 u[84] + 18 u[85]
   + 60 u[86] + 33 u[87] + 59 u[88] + 64 u[89] + 5 u[90] + 25 u[91]
   + 85 u[92] + 52 u[93] + 25 u[94] + 38 u[95] + 90 u[96] + 49 u[97]
   + u[98] + 37 u[99] + 54 u[100] + 49 u[101] + 19 u[102] + u[103]
   + 22 u[104] + 91 u[105] + 76 u[106] + 83 u[107] + 47 u[108] + 54 u[109]
   <= 23463
 mccormick1[0]: - u[0] + r[0] <= 0
 mccormick1[1]: - u[1] + r[1] <= 0
 mccormick1[2]: - u[2] + r[2] <= 0
 mccormick1[3]: - u[3] + r[3] <= 0
 mccormick1[4]: - u[4] + r[4] <= 0
 mccormick1[5]: - u[5] + r[5] <= 0
 mccormick1[6]: - u[6] + r[6] <= 0
 mccormick1[7]: - u[7] + r[7] <= 0
 mccormick1[8]: - u[8] + r[8] <= 0
 mccormick1[9]: - u[9] + r[9] <= 0
 mccormick1[10]: - u[10] + r[10] <= 0
 mccormick1[11]: - u[11] + r[11] <= 0
 mccormick1[12]: - u[12] + r[12] <= 0
 mccormick1[13]: - u[13] + r[13] <= 0
 mccormick1[14]: - u[14] + r[14] <= 0
 mccormick1[15]: - u[15] + r[15] <= 0
 mccormick1[16]: - u[16] + r[16] <= 0
 mccormick1[17]: - u[17] + r[17] <= 0
 mccormick1[18]: - u[18] + r[18] <= 0
 mccormick1[19]: - u[19] + r[19] <= 0
 mccormick1[20]: - u[20] + r[20] <= 0
 mccormick1[21]: - u[21] + r[21] <= 0
 mccormick1[22]: - u[22] + r[22] <= 0
 mccormick1[23]: - u[23] + r[23] <= 0
 mccormick1[24]: - u[24] + r[24] <= 0
 mccormick1[25]: - u[25] + r[25] <= 0
 mccormick1[26]: - u[26] + r[26] <= 0
 mccormick1[27]: - u[27] + r[27] <= 0
 mccormick1[28]: - u[28] + r[28] <= 0
 mccormick1[29]: - u[29] + r[29] <= 0
 mccormick1[30]: - u[30] + r[30] <= 0
 mccormick1[31]: - u[31] + r[31] <= 0
 mccormick1[32]: - u[32] + r[32] <= 0
 mccormick1[33]: - u[33] + r[33] <= 0
 mccormick1[34]: - u[34] + r[34] <= 0
 mccormick1[35]: - u[35] + r[35] <= 0
 mccormick1[36]: - u[36] + r[36] <= 0
 mccormick1[37]: - u[37] + r[37] <= 0
 mccormick1[38]: - u[38] + r[38] <= 0
 mccormick1[39]: - u[39] + r[39] <= 0
 mccormick1[40]: - u[40] + r[40] <= 0
 mccormick1[41]: - u[41] + r[41] <= 0
 mccormick1[42]: - u[42] + r[42] <= 0
 mccormick1[43]: - u[43] + r[43] <= 0
 mccormick1[44]: - u[44] + r[44] <= 0
 mccormick1[45]: - u[45] + r[45] <= 0
 mccormick1[46]: - u[46] + r[46] <= 0
 mccormick1[47]: - u[47] + r[47] <= 0
 mccormick1[48]: - u[48] + r[48] <= 0
 mccormick1[49]: - u[49] + r[49] <= 0
 mccormick1[50]: - u[50] + r[50] <= 0
 mccormick1[51]: - u[51] + r[51] <= 0
 mccormick1[52]: - u[52] + r[52] <= 0
 mccormick1[53]: - u[53] + r[53] <= 0
 mccormick1[54]: - u[54] + r[54] <= 0
 mccormick1[55]: - u[55] + r[55] <= 0
 mccormick1[56]: - u[56] + r[56] <= 0
 mccormick1[57]: - u[57] + r[57] <= 0
 mccormick1[58]: - u[58] + r[58] <= 0
 mccormick1[59]: - u[59] + r[59] <= 0
 mccormick1[60]: - u[60] + r[60] <= 0
 mccormick1[61]: - u[61] + r[61] <= 0
 mccormick1[62]: - u[62] + r[62] <= 0
 mccormick1[63]: - u[63] + r[63] <= 0
 mccormick1[64]: - u[64] + r[64] <= 0
 mccormick1[65]: - u[65] + r[65] <= 0
 mccormick1[66]: - u[66] + r[66] <= 0
 mccormick1[67]: - u[67] + r[67] <= 0
 mccormick1[68]: - u[68] + r[68] <= 0
 mccormick1[69]: - u[69] + r[69] <= 0
 mccormick1[70]: - u[70] + r[70] <= 0
 mccormick1[71]: - u[71] + r[71] <= 0
 mccormick1[72]: - u[72] + r[72] <= 0
 mccormick1[73]: - u[73] + r[73] <= 0
 mccormick1[74]: - u[74] + r[74] <= 0
 mccormick1[75]: - u[75] + r[75] <= 0
 mccormick1[76]: - u[76] + r[76] <= 0
 mccormick1[77]: - u[77] + r[77] <= 0
 mccormick1[78]: - u[78] + r[78] <= 0
 mccormick1[79]: - u[79] + r[79] <= 0
 mccormick1[80]: - u[80] + r[80] <= 0
 mccormick1[81]: - u[81] + r[81] <= 0
 mccormick1[82]: - u[82] + r[82] <= 0
 mccormick1[83]: - u[83] + r[83] <= 0
 mccormick1[84]: - u[84] + r[84] <= 0
 mccormick1[85]: - u[85] + r[85] <= 0
 mccormick1[86]: - u[86] + r[86] <= 0
 mccormick1[87]: - u[87] + r[87] <= 0
 mccormick1[88]: - u[88] + r[88] <= 0
 mccormick1[89]: - u[89] + r[89] <= 0
 mccormick1[90]: - u[90] + r[90] <= 0
 mccormick1[91]: - u[91] + r[91] <= 0
 mccormick1[92]: - u[92] + r[92] <= 0
 mccormick1[93]: - u[93] + r[93] <= 0
 mccormick1[94]: - u[94] + r[94] <= 0
 mccormick1[95]: - u[95] + r[95] <= 0
 mccormick1[96]: - u[96] + r[96] <= 0
 mccormick1[97]: - u[97] + r[97] <= 0
 mccormick1[98]: - u[98] + r[98] <= 0
 mccormick1[99]: - u[99] + r[99] <= 0
 mccormick1[100]: - u[100] + r[100] <= 0
 mccormick1[101]: - u[101] + r[101] <= 0
 mccormick1[102]: - u[102] + r[102] <= 0
 mccormick1[103]: - u[103] + r[103] <= 0
 mccormick1[104]: - u[104] + r[104] <= 0
 mccormick1[105]: - u[105] + r[105] <= 0
 mccormick1[106]: - u[106] + r[106] <= 0
 mccormick1[107]: - u[107] + r[107] <= 0
 mccormick1[108]: - u[108] + r[108] <= 0
 mccormick1[109]: - u[109] + r[109] <= 0
 mccormick2[0]: - x[0] + r[0] <= 0
 mccormick2[1]: - x[1] + r[1] <= 0
 mccormick2[2]: - x[2] + r[2] <= 0
 mccormick2[3]: - x[3] + r[3] <= 0
 mccormick2[4]: - x[4] + r[4] <= 0
 mccormick2[5]: - x[5] + r[5] <= 0
 mccormick2[6]: - x[6] + r[6] <= 0
 mccormick2[7]: - x[7] + r[7] <= 0
 mccormick2[8]: - x[8] + r[8] <= 0
 mccormick2[9]: - x[9] + r[9] <= 0
 mccormick2[10]: - x[10] + r[10] <= 0
 mccormick2[11]: - x[11] + r[11] <= 0
 mccormick2[12]: - x[12] + r[12] <= 0
 mccormick2[13]: - x[13] + r[13] <= 0
 mccormick2[14]: - x[14] + r[14] <= 0
 mccormick2[15]: - x[15] + r[15] <= 0
 mccormick2[16]: - x[16] + r[16] <= 0
 mccormick2[17]: - x[17] + r[17] <= 0
 mccormick2[18]: - x[18] + r[18] <= 0
 mccormick2[19]: - x[19] + r[19] <= 0
 mccormick2[20]: - x[20] + r[20] <= 0
 mccormick2[21]: - x[21] + r[21] <= 0
 mccormick2[22]: - x[22] + r[22] <= 0
 mccormick2[23]: - x[23] + r[23] <= 0
 mccormick2[24]: - x[24] + r[24] <= 0
 mccormick2[25]: - x[25] + r[25] <= 0
 mccormick2[26]: - x[26] + r[26] <= 0
 mccormick2[27]: - x[27] + r[27] <= 0
 mccormick2[28]: - x[28] + r[28] <= 0
 mccormick2[29]: - x[29] + r[29] <= 0
 mccormick2[30]: - x[30] + r[30] <= 0
 mccormick2[31]: - x[31] + r[31] <= 0
 mccormick2[32]: - x[32] + r[32] <= 0
 mccormick2[33]: - x[33] + r[33] <= 0
 mccormick2[34]: - x[34] + r[34] <= 0
 mccormick2[35]: - x[35] + r[35] <= 0
 mccormick2[36]: - x[36] + r[36] <= 0
 mccormick2[37]: - x[37] + r[37] <= 0
 mccormick2[38]: - x[38] + r[38] <= 0
 mccormick2[39]: - x[39] + r[39] <= 0
 mccormick2[40]: - x[40] + r[40] <= 0
 mccormick2[41]: - x[41] + r[41] <= 0
 mccormick2[42]: - x[42] + r[42] <= 0
 mccormick2[43]: - x[43] + r[43] <= 0
 mccormick2[44]: - x[44] + r[44] <= 0
 mccormick2[45]: - x[45] + r[45] <= 0
 mccormick2[46]: - x[46] + r[46] <= 0
 mccormick2[47]: - x[47] + r[47] <= 0
 mccormick2[48]: - x[48] + r[48] <= 0
 mccormick2[49]: - x[49] + r[49] <= 0
 mccormick2[50]: - x[50] + r[50] <= 0
 mccormick2[51]: - x[51] + r[51] <= 0
 mccormick2[52]: - x[52] + r[52] <= 0
 mccormick2[53]: - x[53] + r[53] <= 0
 mccormick2[54]: - x[54] + r[54] <= 0
 mccormick2[55]: - x[55] + r[55] <= 0
 mccormick2[56]: - x[56] + r[56] <= 0
 mccormick2[57]: - x[57] + r[57] <= 0
 mccormick2[58]: - x[58] + r[58] <= 0
 mccormick2[59]: - x[59] + r[59] <= 0
 mccormick2[60]: - x[60] + r[60] <= 0
 mccormick2[61]: - x[61] + r[61] <= 0
 mccormick2[62]: - x[62] + r[62] <= 0
 mccormick2[63]: - x[63] + r[63] <= 0
 mccormick2[64]: - x[64] + r[64] <= 0
 mccormick2[65]: - x[65] + r[65] <= 0
 mccormick2[66]: - x[66] + r[66] <= 0
 mccormick2[67]: - x[67] + r[67] <= 0
 mccormick2[68]: - x[68] + r[68] <= 0
 mccormick2[69]: - x[69] + r[69] <= 0
 mccormick2[70]: - x[70] + r[70] <= 0
 mccormick2[71]: - x[71] + r[71] <= 0
 mccormick2[72]: - x[72] + r[72] <= 0
 mccormick2[73]: - x[73] + r[73] <= 0
 mccormick2[74]: - x[74] + r[74] <= 0
 mccormick2[75]: - x[75] + r[75] <= 0
 mccormick2[76]: - x[76] + r[76] <= 0
 mccormick2[77]: - x[77] + r[77] <= 0
 mccormick2[78]: - x[78] + r[78] <= 0
 mccormick2[79]: - x[79] + r[79] <= 0
 mccormick2[80]: - x[80] + r[80] <= 0
 mccormick2[81]: - x[81] + r[81] <= 0
 mccormick2[82]: - x[82] + r[82] <= 0
 mccormick2[83]: - x[83] + r[83] <= 0
 mccormick2[84]: - x[84] + r[84] <= 0
 mccormick2[85]: - x[85] + r[85] <= 0
 mccormick2[86]: - x[86] + r[86] <= 0
 mccormick2[87]: - x[87] + r[87] <= 0
 mccormick2[88]: - x[88] + r[88] <= 0
 mccormick2[89]: - x[89] + r[89] <= 0
 mccormick2[90]: - x[90] + r[90] <= 0
 mccormick2[91]: - x[91] + r[91] <= 0
 mccormick2[92]: - x[92] + r[92] <= 0
 mccormick2[93]: - x[93] + r[93] <= 0
 mccormick2[94]: - x[94] + r[94] <= 0
 mccormick2[95]: - x[95] + r[95] <= 0
 mccormick2[96]: - x[96] + r[96] <= 0
 mccormick2[97]: - x[97] + r[97] <= 0
 mccormick2[98]: - x[98] + r[98] <= 0
 mccormick2[99]: - x[99] + r[99] <= 0
 mccormick2[100]: - x[100] + r[100] <= 0
 mccormick2[101]: - x[101] + r[101] <= 0
 mccormick2[102]: - x[102] + r[102] <= 0
 mccormick2[103]: - x[103] + r[103] <= 0
 mccormick2[104]: - x[104] + r[104] <= 0
 mccormick2[105]: - x[105] + r[105] <= 0
 mccormick2[106]: - x[106] + r[106] <= 0
 mccormick2[107]: - x[107] + r[107] <= 0
 mccormick2[108]: - x[108] + r[108] <= 0
 mccormick2[109]: - x[109] + r[109] <= 0
 mccormick3[0]: x[0] + u[0] - r[0] <= 1
 mccormick3[1]: x[1] + u[1] - r[1] <= 1
 mccormick3[2]: x[2] + u[2] - r[2] <= 1
 mccormick3[3]: x[3] + u[3] - r[3] <= 1
 mccormick3[4]: x[4] + u[4] - r[4] <= 1
 mccormick3[5]: x[5] + u[5] - r[5] <= 1
 mccormick3[6]: x[6] + u[6] - r[6] <= 1
 mccormick3[7]: x[7] + u[7] - r[7] <= 1
 mccormick3[8]: x[8] + u[8] - r[8] <= 1
 mccormick3[9]: x[9] + u[9] - r[9] <= 1
 mccormick3[10]: x[10] + u[10] - r[10] <= 1
 mccormick3[11]: x[11] + u[11] - r[11] <= 1
 mccormick3[12]: x[12] + u[12] - r[12] <= 1
 mccormick3[13]: x[13] + u[13] - r[13] <= 1
 mccormick3[14]: x[14] + u[14] - r[14] <= 1
 mccormick3[15]: x[15] + u[15] - r[15] <= 1
 mccormick3[16]: x[16] + u[16] - r[16] <= 1
 mccormick3[17]: x[17] + u[17] - r[17] <= 1
 mccormick3[18]: x[18] + u[18] - r[18] <= 1
 mccormick3[19]: x[19] + u[19] - r[19] <= 1
 mccormick3[20]: x[20] + u[20] - r[20] <= 1
 mccormick3[21]: x[21] + u[21] - r[21] <= 1
 mccormick3[22]: x[22] + u[22] - r[22] <= 1
 mccormick3[23]: x[23] + u[23] - r[23] <= 1
 mccormick3[24]: x[24] + u[24] - r[24] <= 1
 mccormick3[25]: x[25] + u[25] - r[25] <= 1
 mccormick3[26]: x[26] + u[26] - r[26] <= 1
 mccormick3[27]: x[27] + u[27] - r[27] <= 1
 mccormick3[28]: x[28] + u[28] - r[28] <= 1
 mccormick3[29]: x[29] + u[29] - r[29] <= 1
 mccormick3[30]: x[30] + u[30] - r[30] <= 1
 mccormick3[31]: x[31] + u[31] - r[31] <= 1
 mccormick3[32]: x[32] + u[32] - r[32] <= 1
 mccormick3[33]: x[33] + u[33] - r[33] <= 1
 mccormick3[34]: x[34] + u[34] - r[34] <= 1
 mccormick3[35]: x[35] + u[35] - r[35] <= 1
 mccormick3[36]: x[36] + u[36] - r[36] <= 1
 mccormick3[37]: x[37] + u[37] - r[37] <= 1
 mccormick3[38]: x[38] + u[38] - r[38] <= 1
 mccormick3[39]: x[39] + u[39] - r[39] <= 1
 mccormick3[40]: x[40] + u[40] - r[40] <= 1
 mccormick3[41]: x[41] + u[41] - r[41] <= 1
 mccormick3[42]: x[42] + u[42] - r[42] <= 1
 mccormick3[43]: x[43] + u[43] - r[43] <= 1
 mccormick3[44]: x[44] + u[44] - r[44] <= 1
 mccormick3[45]: x[45] + u[45] - r[45] <= 1
 mccormick3[46]: x[46] + u[46] - r[46] <= 1
 mccormick3[47]: x[47] + u[47] - r[47] <= 1
 mccormick3[48]: x[48] + u[48] - r[48] <= 1
 mccormick3[49]: x[49] + u[49] - r[49] <= 1
 mccormick3[50]: x[50] + u[50] - r[50] <= 1
 mccormick3[51]: x[51] + u[51] - r[51] <= 1
 mccormick3[52]: x[52] + u[52] - r[52] <= 1
 mccormick3[53]: x[53] + u[53] - r[53] <= 1
 mccormick3[54]: x[54] + u[54] - r[54] <= 1
 mccormick3[55]: x[55] + u[55] - r[55] <= 1
 mccormick3[56]: x[56] + u[56] - r[56] <= 1
 mccormick3[57]: x[57] + u[57] - r[57] <= 1
 mccormick3[58]: x[58] + u[58] - r[58] <= 1
 mccormick3[59]: x[59] + u[59] - r[59] <= 1
 mccormick3[60]: x[60] + u[60] - r[60] <= 1
 mccormick3[61]: x[61] + u[61] - r[61] <= 1
 mccormick3[62]: x[62] + u[62] - r[62] <= 1
 mccormick3[63]: x[63] + u[63] - r[63] <= 1
 mccormick3[64]: x[64] + u[64] - r[64] <= 1
 mccormick3[65]: x[65] + u[65] - r[65] <= 1
 mccormick3[66]: x[66] + u[66] - r[66] <= 1
 mccormick3[67]: x[67] + u[67] - r[67] <= 1
 mccormick3[68]: x[68] + u[68] - r[68] <= 1
 mccormick3[69]: x[69] + u[69] - r[69] <= 1
 mccormick3[70]: x[70] + u[70] - r[70] <= 1
 mccormick3[71]: x[71] + u[71] - r[71] <= 1
 mccormick3[72]: x[72] + u[72] - r[72] <= 1
 mccormick3[73]: x[73] + u[73] - r[73] <= 1
 mccormick3[74]: x[74] + u[74] - r[74] <= 1
 mccormick3[75]: x[75] + u[75] - r[75] <= 1
 mccormick3[76]: x[76] + u[76] - r[76] <= 1
 mccormick3[77]: x[77] + u[77] - r[77] <= 1
 mccormick3[78]: x[78] + u[78] - r[78] <= 1
 mccormick3[79]: x[79] + u[79] - r[79] <= 1
 mccormick3[80]: x[80] + u[80] - r[80] <= 1
 mccormick3[81]: x[81] + u[81] - r[81] <= 1
 mccormick3[82]: x[82] + u[82] - r[82] <= 1
 mccormick3[83]: x[83] + u[83] - r[83] <= 1
 mccormick3[84]: x[84] + u[84] - r[84] <= 1
 mccormick3[85]: x[85] + u[85] - r[85] <= 1
 mccormick3[86]: x[86] + u[86] - r[86] <= 1
 mccormick3[87]: x[87] + u[87] - r[87] <= 1
 mccormick3[88]: x[88] + u[88] - r[88] <= 1
 mccormick3[89]: x[89] + u[89] - r[89] <= 1
 mccormick3[90]: x[90] + u[90] - r[90] <= 1
 mccormick3[91]: x[91] + u[91] - r[91] <= 1
 mccormick3[92]: x[92] + u[92] - r[92] <= 1
 mccormick3[93]: x[93] + u[93] - r[93] <= 1
 mccormick3[94]: x[94] + u[94] - r[94] <= 1
 mccormick3[95]: x[95] + u[95] - r[95] <= 1
 mccormick3[96]: x[96] + u[96] - r[96] <= 1
 mccormick3[97]: x[97] + u[97] - r[97] <= 1
 mccormick3[98]: x[98] + u[98] - r[98] <= 1
 mccormick3[99]: x[99] + u[99] - r[99] <= 1
 mccormick3[100]: x[100] + u[100] - r[100] <= 1
 mccormick3[101]: x[101] + u[101] - r[101] <= 1
 mccormick3[102]: x[102] + u[102] - r[102] <= 1
 mccormick3[103]: x[103] + u[103] - r[103] <= 1
 mccormick3[104]: x[104] + u[104] - r[104] <= 1
 mccormick3[105]: x[105] + u[105] - r[105] <= 1
 mccormick3[106]: x[106] + u[106] - r[106] <= 1
 mccormick3[107]: x[107] + u[107] - r[107] <= 1
 mccormick3[108]: x[108] + u[108] - r[108] <= 1
 mccormick3[109]: x[109] + u[109] - r[109] <= 1
Bounds
Binaries
 x[0] x[1] x[2] x[3] x[4] x[5] x[6] x[7] x[8] x[9] x[10] x[11] x[12] x[13]
 x[14] x[15] x[16] x[17] x[18] x[19] x[20] x[21] x[22] x[23] x[24] x[25]
 x[26] x[27] x[28] x[29] x[30] x[31] x[32] x[33] x[34] x[35] x[36] x[37]
 x[38] x[39] x[40] x[41] x[42] x[43] x[44] x[45] x[46] x[47] x[48] x[49]
 x[50] x[51] x[52] x[53] x[54] x[55] x[56] x[57] x[58] x[59] x[60] x[61]
 x[62] x[63] x[64] x[65] x[66] x[67] x[68] x[69] x[70] x[71] x[72] x[73]
 x[74] x[75] x[76] x[77] x[78] x[79] x[80] x[81] x[82] x[83] x[84] x[85]
 x[86] x[87] x[88] x[89] x[90] x[91] x[92] x[93] x[94] x[95] x[96] x[97]
 x[98] x[99] x[100] x[101] x[102] x[103] x[104] x[105] x[106] x[107] x[108]
 x[109] u[0] u[1] u[2] u[3] u[4] u[5] u[6] u[7] u[8] u[9] u[10] u[11] u[12]
 u[13] u[14] u[15] u[16] u[17] u[18] u[19] u[20] u[21] u[22] u[23] u[24]
 u[25] u[26] u[27] u[28] u[29] u[30] u[31] u[32] u[33] u[34] u[35] u[36]
 u[37] u[38] u[39] u[40] u[41] u[42] u[43] u[44] u[45] u[46] u[47] u[48]
 u[49] u[50] u[51] u[52] u[53] u[54] u[55] u[56] u[57] u[58] u[59] u[60]
 u[61] u[62] u[63] u[64] u[65] u[66] u[67] u[68] u[69] u[70] u[71] u[72]
 u[73] u[74] u[75] u[76] u[77] u[78] u[79] u[80] u[81] u[82] u[83] u[84]
 u[85] u[86] u[87] u[88] u[89] u[90] u[91] u[92] u[93] u[94] u[95] u[96]
 u[97] u[98] u[99] u[100] u[101] u[102] u[103] u[104] u[105] u[106] u[107]
 u[108] u[109] r[0] r[1] r[2] r[3] r[4] r[5] r[6] r[7] r[8] r[9] r[10]
 r[11] r[12] r[13] r[14] r[15] r[16] r[17] r[18] r[19] r[20] r[21] r[22]
 r[23] r[24] r[25] r[26] r[27] r[28] r[29] r[30] r[31] r[32] r[33] r[34]
 r[35] r[36] r[37] r[38] r[39] r[40] r[41] r[42] r[43] r[44] r[45] r[46]
 r[47] r[48] r[49] r[50] r[51] r[52] r[53] r[54] r[55] r[56] r[57] r[58]
 r[59] r[60] r[61] r[62] r[63] r[64] r[65] r[66] r[67] r[68] r[69] r[70]
 r[71] r[72] r[73] r[74] r[75] r[76] r[77] r[78] r[79] r[80] r[81] r[82]
 r[83] r[84] r[85] r[86] r[87] r[88] r[89] r[90] r[91] r[92] r[93] r[94]
 r[95] r[96] r[97] r[98] r[99] r[100] r[101] r[102] r[103] r[104] r[105]
 r[106] r[107] r[108] r[109]
End
