instances/knapsack/discrete_knapsack_uncertainty/knapsack_110_10.kp
68613
110
479

3 0.3 24
72 7.2 4
10 1.0 82
47 4.7 98
16 1.6 75
85 8.5 59
13 1.3 23
39 3.9 25
17 1.7 8
46 4.6 12
83 8.3 89
27 2.7 57
52 5.2 37
16 1.6 12
88 8.8 17
60 6.0 34
41 4.1 72
72 7.2 76
45 4.5 88
86 8.6 15
17 1.7 67
7 0.7 89
4 0.4 54
50 5.0 98
68 6.8 83
56 5.6 60
90 9.0 86
95 9.5 77
65 6.5 56
55 5.5 62
1 0.1 63
7 0.7 46
63 6.3 38
21 2.1 69
84 8.4 69
81 8.1 19
80 8.0 31
4 0.4 33
24 2.4 44
30 3.0 5
3 0.3 10
1 0.1 63
42 4.2 63
69 6.9 61
71 7.1 72
94 9.4 93
13 1.3 98
53 5.3 14
67 6.7 34
80 8.0 19
18 1.8 77
12 1.2 56
77 7.7 37
64 6.4 55
36 3.6 54
79 7.9 8
17 1.7 52
22 2.2 82
28 2.8 38
90 9.0 21
24 2.4 18
10 1.0 72
7 0.7 99
26 2.6 23
99 9.9 84
80 8.0 31
8 0.8 55
54 5.4 79
8 0.8 26
37 3.7 43
77 7.7 43
89 8.9 1
38 3.8 91
43 4.3 83
51 5.1 32
36 3.6 20
42 4.2 48
71 7.1 51
56 5.6 82
26 2.6 93
1 0.1 93
77 7.7 52
34 3.4 3
49 4.9 60
21 2.1 59
85 8.5 30
3 0.3 100
12 1.2 57
70 7.0 94
47 4.7 52
84 8.4 20
4 0.4 11
88 8.8 87
79 7.9 90
36 3.6 58
9 0.9 60
25 2.5 75
36 3.6 18
84 8.4 26
20 2.0 70
5 0.5 54
36 3.6 11
26 2.6 8
72 7.2 3
77 7.7 57
94 9.4 81
15 1.5 72
46 4.6 42
82 8.2 76
81 8.1 86

23463
559

[2.6622835566689447 2.336179083187369 1.564927099552886 1.3028928052801274 0.29190737426385827 3.2832907252929333 3.584495486407963 1.7971835772441636 4.978422934064448 4.852721635554939 4.671912598454381 4.408927848452948 4.1497316977062715 0.27415722462937514 0.8299510306089622 1.1413608798320918 0.041328848892438985 0.8732118993556106 2.487139685161104 2.4141185328509445 2.6143338812604138 4.336593140789945 0.16709691108845762 1.0745556565828571 3.6910979155255874 3.9562701165536915 4.742566451854835 4.826394536752269 3.930758111661458 4.797192029616665 3.1691499813698885 3.3570062135808287 3.0087038423950734 0.04708226854259454 4.92292862570478 3.2644435984357423 1.9596745325874372 2.2702657190748883 2.1798332603955974 2.1693191575524096 4.378053300942698 4.7161572348816065 4.729683284730773 4.964452158943546 2.6619107200569907 2.470494795071506 1.9078225521749366 1.9809917027447164 4.939818003459874 0.05231422259314752 1.4609489630450572 2.959132727141329 2.3679698406150087 1.480692025452979 2.7752941773416593 4.6279336726664635 0.8062325889997264 1.8526409354067133 0.26222816046328756 0.7782301287661382 4.45791706315396 3.0322278805649905 4.1465039323847215 1.0663918489732593 3.578801501514987 3.5168750164991094 4.854363523000247 0.16267293459792692 4.160204768861743 1.2234635214925718 3.9816398570324707 2.7153829651074575 2.855707454575172 1.3146228778306734 1.3905971107165438 2.595802692252498 2.0571107210791726 2.4900292557792345 1.8649119124322213 0.43270585671531114 4.8265365458463965 0.2527413565792005 1.7093802710304788 4.786019164534275 0.507721428631343 3.1746005782564177 5.029137172353508 0.32530186053037813 4.1557235611559085 4.442564046802981 2.189595101906791 3.837430177195959 0.18602072786067528 3.4229940649018955 1.1169196252546076 3.393164335055423 2.093627474538329 0.8066179486694639 4.808505907930709 0.08660823608508254 0.8580190285160783 1.5262641394501404 2.320583583127267 3.3575112933762132 0.7384544139373205 1.6387418307100226 3.2188733739784907 4.204426883915871 4.194951730026291 3.017904063947266]

[28 33 35 68 13 54 50 24 66 7 96 88 97 85 85 21 90 89 58 83 34 24 29 87 1 61 91 92 62 96 86 24 20 98 77 62 97 97 53 23 72 30 75 86 40 39 34 98 32 29 75 25 22 81 97 96 54 79 53 23 85 35 64 43 88 45 29 91 93 38 6 10 43 68 68 17 67 36 21 11 54 46 31 66 54 18 60 33 59 64 5 25 85 52 25 38 90 49 1 37 54 49 19 1 22 91 76 83 47 54]
